certificates/rado_a14_c36_N75.cnf
c Rad2 upper bound instance: x1 + 14*x2 - x3 = 36, interval [1,75]
p cnf 75 650
1 3 7 0
-1 -3 -7 0
1 4 21 0
-1 -4 -21 0
1 5 35 0
-1 -5 -35 0
1 6 49 0
-1 -6 -49 0
1 7 63 0
-1 -7 -63 0
2 3 8 0
-2 -3 -8 0
2 4 22 0
-2 -4 -22 0
2 5 36 0
-2 -5 -36 0
2 6 50 0
-2 -6 -50 0
2 7 64 0
-2 -7 -64 0
3 9 0
-3 -9 0
3 4 23 0
-3 -4 -23 0
3 5 37 0
-3 -5 -37 0
3 6 51 0
-3 -6 -51 0
3 7 65 0
-3 -7 -65 0
3 4 10 0
-3 -4 -10 0
4 24 0
-4 -24 0
4 5 38 0
-4 -5 -38 0
4 6 52 0
-4 -6 -52 0
4 7 66 0
-4 -7 -66 0
3 5 11 0
-3 -5 -11 0
4 5 25 0
-4 -5 -25 0
5 39 0
-5 -39 0
5 6 53 0
-5 -6 -53 0
5 7 67 0
-5 -7 -67 0
3 6 12 0
-3 -6 -12 0
4 6 26 0
-4 -6 -26 0
5 6 40 0
-5 -6 -40 0
6 54 0
-6 -54 0
6 7 68 0
-6 -7 -68 0
3 7 13 0
-3 -7 -13 0
4 7 27 0
-4 -7 -27 0
5 7 41 0
-5 -7 -41 0
6 7 55 0
-6 -7 -55 0
7 69 0
-7 -69 0
3 8 14 0
-3 -8 -14 0
4 8 28 0
-4 -8 -28 0
5 8 42 0
-5 -8 -42 0
6 8 56 0
-6 -8 -56 0
7 8 70 0
-7 -8 -70 0
1 2 9 0
-1 -2 -9 0
3 9 15 0
-3 -9 -15 0
4 9 29 0
-4 -9 -29 0
5 9 43 0
-5 -9 -43 0
6 9 57 0
-6 -9 -57 0
7 9 71 0
-7 -9 -71 0
2 10 0
-2 -10 0
3 10 16 0
-3 -10 -16 0
4 10 30 0
-4 -10 -30 0
5 10 44 0
-5 -10 -44 0
6 10 58 0
-6 -10 -58 0
7 10 72 0
-7 -10 -72 0
2 3 11 0
-2 -3 -11 0
3 11 17 0
-3 -11 -17 0
4 11 31 0
-4 -11 -31 0
5 11 45 0
-5 -11 -45 0
6 11 59 0
-6 -11 -59 0
7 11 73 0
-7 -11 -73 0
2 4 12 0
-2 -4 -12 0
3 12 18 0
-3 -12 -18 0
4 12 32 0
-4 -12 -32 0
5 12 46 0
-5 -12 -46 0
6 12 60 0
-6 -12 -60 0
7 12 74 0
-7 -12 -74 0
2 5 13 0
-2 -5 -13 0
3 13 19 0
-3 -13 -19 0
4 13 33 0
-4 -13 -33 0
5 13 47 0
-5 -13 -47 0
6 13 61 0
-6 -13 -61 0
7 13 75 0
-7 -13 -75 0
2 6 14 0
-2 -6 -14 0
3 14 20 0
-3 -14 -20 0
4 14 34 0
-4 -14 -34 0
5 14 48 0
-5 -14 -48 0
6 14 62 0
-6 -14 -62 0
2 7 15 0
-2 -7 -15 0
3 15 21 0
-3 -15 -21 0
4 15 35 0
-4 -15 -35 0
5 15 49 0
-5 -15 -49 0
6 15 63 0
-6 -15 -63 0
2 8 16 0
-2 -8 -16 0
3 16 22 0
-3 -16 -22 0
4 16 36 0
-4 -16 -36 0
5 16 50 0
-5 -16 -50 0
6 16 64 0
-6 -16 -64 0
2 9 17 0
-2 -9 -17 0
3 17 23 0
-3 -17 -23 0
4 17 37 0
-4 -17 -37 0
5 17 51 0
-5 -17 -51 0
6 17 65 0
-6 -17 -65 0
2 10 18 0
-2 -10 -18 0
3 18 24 0
-3 -18 -24 0
4 18 38 0
-4 -18 -38 0
5 18 52 0
-5 -18 -52 0
6 18 66 0
-6 -18 -66 0
2 11 19 0
-2 -11 -19 0
3 19 25 0
-3 -19 -25 0
4 19 39 0
-4 -19 -39 0
5 19 53 0
-5 -19 -53 0
6 19 67 0
-6 -19 -67 0
2 12 20 0
-2 -12 -20 0
3 20 26 0
-3 -20 -26 0
4 20 40 0
-4 -20 -40 0
5 20 54 0
-5 -20 -54 0
6 20 68 0
-6 -20 -68 0
2 13 21 0
-2 -13 -21 0
3 21 27 0
-3 -21 -27 0
4 21 41 0
-4 -21 -41 0
5 21 55 0
-5 -21 -55 0
6 21 69 0
-6 -21 -69 0
2 14 22 0
-2 -14 -22 0
3 22 28 0
-3 -22 -28 0
4 22 42 0
-4 -22 -42 0
5 22 56 0
-5 -22 -56 0
6 22 70 0
-6 -22 -70 0
1 23 0
-1 -23 0
2 15 23 0
-2 -15 -23 0
3 23 29 0
-3 -23 -29 0
4 23 43 0
-4 -23 -43 0
5 23 57 0
-5 -23 -57 0
6 23 71 0
-6 -23 -71 0
1 2 24 0
-1 -2 -24 0
2 16 24 0
-2 -16 -24 0
3 24 30 0
-3 -24 -30 0
4 24 44 0
-4 -24 -44 0
5 24 58 0
-5 -24 -58 0
6 24 72 0
-6 -24 -72 0
1 3 25 0
-1 -3 -25 0
2 17 25 0
-2 -17 -25 0
3 25 31 0
-3 -25 -31 0
4 25 45 0
-4 -25 -45 0
5 25 59 0
-5 -25 -59 0
6 25 73 0
-6 -25 -73 0
1 4 26 0
-1 -4 -26 0
2 18 26 0
-2 -18 -26 0
3 26 32 0
-3 -26 -32 0
4 26 46 0
-4 -26 -46 0
5 26 60 0
-5 -26 -60 0
6 26 74 0
-6 -26 -74 0
1 5 27 0
-1 -5 -27 0
2 19 27 0
-2 -19 -27 0
3 27 33 0
-3 -27 -33 0
4 27 47 0
-4 -27 -47 0
5 27 61 0
-5 -27 -61 0
6 27 75 0
-6 -27 -75 0
1 6 28 0
-1 -6 -28 0
2 20 28 0
-2 -20 -28 0
3 28 34 0
-3 -28 -34 0
4 28 48 0
-4 -28 -48 0
5 28 62 0
-5 -28 -62 0
1 7 29 0
-1 -7 -29 0
2 21 29 0
-2 -21 -29 0
3 29 35 0
-3 -29 -35 0
4 29 49 0
-4 -29 -49 0
5 29 63 0
-5 -29 -63 0
1 8 30 0
-1 -8 -30 0
2 22 30 0
-2 -22 -30 0
3 30 36 0
-3 -30 -36 0
4 30 50 0
-4 -30 -50 0
5 30 64 0
-5 -30 -64 0
1 9 31 0
-1 -9 -31 0
2 23 31 0
-2 -23 -31 0
3 31 37 0
-3 -31 -37 0
4 31 51 0
-4 -31 -51 0
5 31 65 0
-5 -31 -65 0
1 10 32 0
-1 -10 -32 0
2 24 32 0
-2 -24 -32 0
3 32 38 0
-3 -32 -38 0
4 32 52 0
-4 -32 -52 0
5 32 66 0
-5 -32 -66 0
1 11 33 0
-1 -11 -33 0
2 25 33 0
-2 -25 -33 0
3 33 39 0
-3 -33 -39 0
4 33 53 0
-4 -33 -53 0
5 33 67 0
-5 -33 -67 0
1 12 34 0
-1 -12 -34 0
2 26 34 0
-2 -26 -34 0
3 34 40 0
-3 -34 -40 0
4 34 54 0
-4 -34 -54 0
5 34 68 0
-5 -34 -68 0
1 13 35 0
-1 -13 -35 0
2 27 35 0
-2 -27 -35 0
3 35 41 0
-3 -35 -41 0
4 35 55 0
-4 -35 -55 0
5 35 69 0
-5 -35 -69 0
1 14 36 0
-1 -14 -36 0
2 28 36 0
-2 -28 -36 0
3 36 42 0
-3 -36 -42 0
4 36 56 0
-4 -36 -56 0
5 36 70 0
-5 -36 -70 0
1 15 37 0
-1 -15 -37 0
2 29 37 0
-2 -29 -37 0
3 37 43 0
-3 -37 -43 0
4 37 57 0
-4 -37 -57 0
5 37 71 0
-5 -37 -71 0
1 16 38 0
-1 -16 -38 0
2 30 38 0
-2 -30 -38 0
3 38 44 0
-3 -38 -44 0
4 38 58 0
-4 -38 -58 0
5 38 72 0
-5 -38 -72 0
1 17 39 0
-1 -17 -39 0
2 31 39 0
-2 -31 -39 0
3 39 45 0
-3 -39 -45 0
4 39 59 0
-4 -39 -59 0
5 39 73 0
-5 -39 -73 0
1 18 40 0
-1 -18 -40 0
2 32 40 0
-2 -32 -40 0
3 40 46 0
-3 -40 -46 0
4 40 60 0
-4 -40 -60 0
5 40 74 0
-5 -40 -74 0
1 19 41 0
-1 -19 -41 0
2 33 41 0
-2 -33 -41 0
3 41 47 0
-3 -41 -47 0
4 41 61 0
-4 -41 -61 0
5 41 75 0
-5 -41 -75 0
1 20 42 0
-1 -20 -42 0
2 34 42 0
-2 -34 -42 0
3 42 48 0
-3 -42 -48 0
4 42 62 0
-4 -42 -62 0
1 21 43 0
-1 -21 -43 0
2 35 43 0
-2 -35 -43 0
3 43 49 0
-3 -43 -49 0
4 43 63 0
-4 -43 -63 0
1 22 44 0
-1 -22 -44 0
2 36 44 0
-2 -36 -44 0
3 44 50 0
-3 -44 -50 0
4 44 64 0
-4 -44 -64 0
1 23 45 0
-1 -23 -45 0
2 37 45 0
-2 -37 -45 0
3 45 51 0
-3 -45 -51 0
4 45 65 0
-4 -45 -65 0
1 24 46 0
-1 -24 -46 0
2 38 46 0
-2 -38 -46 0
3 46 52 0
-3 -46 -52 0
4 46 66 0
-4 -46 -66 0
1 25 47 0
-1 -25 -47 0
2 39 47 0
-2 -39 -47 0
3 47 53 0
-3 -47 -53 0
4 47 67 0
-4 -47 -67 0
1 26 48 0
-1 -26 -48 0
2 40 48 0
-2 -40 -48 0
3 48 54 0
-3 -48 -54 0
4 48 68 0
-4 -48 -68 0
1 27 49 0
-1 -27 -49 0
2 41 49 0
-2 -41 -49 0
3 49 55 0
-3 -49 -55 0
4 49 69 0
-4 -49 -69 0
1 28 50 0
-1 -28 -50 0
2 42 50 0
-2 -42 -50 0
3 50 56 0
-3 -50 -56 0
4 50 70 0
-4 -50 -70 0
1 29 51 0
-1 -29 -51 0
2 43 51 0
-2 -43 -51 0
3 51 57 0
-3 -51 -57 0
4 51 71 0
-4 -51 -71 0
1 30 52 0
-1 -30 -52 0
2 44 52 0
-2 -44 -52 0
3 52 58 0
-3 -52 -58 0
4 52 72 0
-4 -52 -72 0
1 31 53 0
-1 -31 -53 0
2 45 53 0
-2 -45 -53 0
3 53 59 0
-3 -53 -59 0
4 53 73 0
-4 -53 -73 0
1 32 54 0
-1 -32 -54 0
2 46 54 0
-2 -46 -54 0
3 54 60 0
-3 -54 -60 0
4 54 74 0
-4 -54 -74 0
1 33 55 0
-1 -33 -55 0
2 47 55 0
-2 -47 -55 0
3 55 61 0
-3 -55 -61 0
4 55 75 0
-4 -55 -75 0
1 34 56 0
-1 -34 -56 0
2 48 56 0
-2 -48 -56 0
3 56 62 0
-3 -56 -62 0
1 35 57 0
-1 -35 -57 0
2 49 57 0
-2 -49 -57 0
3 57 63 0
-3 -57 -63 0
1 36 58 0
-1 -36 -58 0
2 50 58 0
-2 -50 -58 0
3 58 64 0
-3 -58 -64 0
1 37 59 0
-1 -37 -59 0
2 51 59 0
-2 -51 -59 0
3 59 65 0
-3 -59 -65 0
1 38 60 0
-1 -38 -60 0
2 52 60 0
-2 -52 -60 0
3 60 66 0
-3 -60 -66 0
1 39 61 0
-1 -39 -61 0
2 53 61 0
-2 -53 -61 0
3 61 67 0
-3 -61 -67 0
1 40 62 0
-1 -40 -62 0
2 54 62 0
-2 -54 -62 0
3 62 68 0
-3 -62 -68 0
1 41 63 0
-1 -41 -63 0
2 55 63 0
-2 -55 -63 0
3 63 69 0
-3 -63 -69 0
1 42 64 0
-1 -42 -64 0
2 56 64 0
-2 -56 -64 0
3 64 70 0
-3 -64 -70 0
1 43 65 0
-1 -43 -65 0
2 57 65 0
-2 -57 -65 0
3 65 71 0
-3 -65 -71 0
1 44 66 0
-1 -44 -66 0
2 58 66 0
-2 -58 -66 0
3 66 72 0
-3 -66 -72 0
1 45 67 0
-1 -45 -67 0
2 59 67 0
-2 -59 -67 0
3 67 73 0
-3 -67 -73 0
1 46 68 0
-1 -46 -68 0
2 60 68 0
-2 -60 -68 0
3 68 74 0
-3 -68 -74 0
1 47 69 0
-1 -47 -69 0
2 61 69 0
-2 -61 -69 0
3 69 75 0
-3 -69 -75 0
1 48 70 0
-1 -48 -70 0
2 62 70 0
-2 -62 -70 0
1 49 71 0
-1 -49 -71 0
2 63 71 0
-2 -63 -71 0
1 50 72 0
-1 -50 -72 0
2 64 72 0
-2 -64 -72 0
1 51 73 0
-1 -51 -73 0
2 65 73 0
-2 -65 -73 0
1 52 74 0
-1 -52 -74 0
2 66 74 0
-2 -66 -74 0
1 53 75 0
-1 -53 -75 0
2 67 75 0
-2 -67 -75 0
