certificates/rado_a14_c36_N75.drat
-69 -75 0
-3 -2 -73 -7 0
-2 -73 -7 0
d -3 -2 -73 -7 0
-73 12 -7 0
-3 -7 0
12 -75 0
-67 -75 0
-75 0
-7 0
69 0
13 0
3 0
-9 0
-63 0
-19 0
71 0
1 0
-65 0
-49 0
-23 0
-47 0
-25 0
-35 0
67 0
-73 0
-61 0
-45 0
11 0
2 0
6 0
4 0
-17 0
-33 0
0
